Problem:    Assegnamento_lineare
Rows:       9
Columns:    16 (16 integer, 16 binary)
Non-zeros:  48
Status:     INTEGER OPTIMAL
Objective:  z = 106 (MINimum)

   No.   Row name        Activity     Lower bound   Upper bound
------ ------------    ------------- ------------- -------------
     1 una_persona[1]
                                   1             1             = 
     2 una_persona[2]
                                   1             1             = 
     3 una_persona[3]
                                   1             1             = 
     4 una_persona[4]
                                   1             1             = 
     5 una_mansione[1]
                                   1             1             = 
     6 una_mansione[2]
                                   1             1             = 
     7 una_mansione[3]
                                   1             1             = 
     8 una_mansione[4]
                                   1             1             = 
     9 z                         106                             

   No. Column name       Activity     Lower bound   Upper bound
------ ------------    ------------- ------------- -------------
     1 x[1,1]       *              0             0             1 
     2 x[1,2]       *              1             0             1 
     3 x[1,3]       *              0             0             1 
     4 x[1,4]       *              0             0             1 
     5 x[2,1]       *              0             0             1 
     6 x[2,2]       *              0             0             1 
     7 x[2,3]       *              1             0             1 
     8 x[2,4]       *              0             0             1 
     9 x[3,1]       *              0             0             1 
    10 x[3,2]       *              0             0             1 
    11 x[3,3]       *              0             0             1 
    12 x[3,4]       *              1             0             1 
    13 x[4,1]       *              1             0             1 
    14 x[4,2]       *              0             0             1 
    15 x[4,3]       *              0             0             1 
    16 x[4,4]       *              0             0             1 

Integer feasibility conditions:

KKT.PE: max.abs.err = 0.00e+000 on row 0
        max.rel.err = 0.00e+000 on row 0
        High quality

KKT.PB: max.abs.err = 0.00e+000 on row 0
        max.rel.err = 0.00e+000 on row 0
        High quality

End of output
